c graph converted from Delauney Triangulation format
c weights on edges removed (lost)
x low 0.00
p edge 195 562
n 0 1.00
n 1 1.00
n 2 1.00
n 14 1.00
n 13 1.00
n 15 1.00
n 7 1.00
n 8 1.00
n 4 1.00
n 3 1.00
n 17 1.00
n 16 1.00
n 5 1.00
n 18 1.00
n 6 1.00
n 19 1.00
n 20 1.00
n 10 1.00
n 9 1.00
n 22 1.00
n 21 1.00
n 23 1.00
n 12 1.00
n 11 1.00
n 24 1.00
n 25 1.00
n 38 1.00
n 27 1.00
n 26 1.00
n 28 1.00
n 29 1.00
n 31 1.00
n 30 1.00
n 33 1.00
n 35 1.00
n 34 1.00
n 37 1.00
n 40 1.00
n 39 1.00
n 52 1.00
n 78 1.00
n 104 1.00
n 41 1.00
n 43 1.00
n 42 1.00
n 32 1.00
n 46 1.00
n 45 1.00
n 44 1.00
n 47 1.00
n 36 1.00
n 50 1.00
n 49 1.00
n 51 1.00
n 77 1.00
n 103 1.00
n 54 1.00
n 53 1.00
n 55 1.00
n 56 1.00
n 58 1.00
n 60 1.00
n 48 1.00
n 62 1.00
n 61 1.00
n 64 1.00
n 63 1.00
n 65 1.00
n 66 1.00
n 68 1.00
n 67 1.00
n 57 1.00
n 70 1.00
n 69 1.00
n 59 1.00
n 73 1.00
n 71 1.00
n 72 1.00
n 74 1.00
n 75 1.00
n 76 1.00
n 79 1.00
n 81 1.00
n 84 1.00
n 82 1.00
n 83 1.00
n 85 1.00
n 87 1.00
n 88 1.00
n 89 1.00
n 90 1.00
n 92 1.00
n 91 1.00
n 80 1.00
n 94 1.00
n 93 1.00
n 96 1.00
n 95 1.00
n 86 1.00
n 98 1.00
n 99 1.00
n 101 1.00
n 102 1.00
n 106 1.00
n 105 1.00
n 108 1.00
n 97 1.00
n 110 1.00
n 109 1.00
n 111 1.00
n 100 1.00
n 112 1.00
n 114 1.00
n 113 1.00
n 116 1.00
n 115 1.00
n 142 1.00
n 117 1.00
n 107 1.00
n 118 1.00
n 121 1.00
n 120 1.00
n 123 1.00
n 122 1.00
n 125 1.00
n 124 1.00
n 126 1.00
n 127 1.00
n 128 1.00
n 129 1.00
n 130 1.00
n 143 1.00
n 169 1.00
n 119 1.00
n 134 1.00
n 131 1.00
n 132 1.00
n 135 1.00
n 136 1.00
n 137 1.00
n 139 1.00
n 138 1.00
n 141 1.00
n 144 1.00
n 133 1.00
n 146 1.00
n 147 1.00
n 148 1.00
n 149 1.00
n 151 1.00
n 150 1.00
n 140 1.00
n 154 1.00
n 153 1.00
n 155 1.00
n 157 1.00
n 156 1.00
n 145 1.00
n 159 1.00
n 160 1.00
n 162 1.00
n 163 1.00
n 164 1.00
n 152 1.00
n 165 1.00
n 167 1.00
n 168 1.00
n 181 1.00
n 158 1.00
n 172 1.00
n 171 1.00
n 161 1.00
n 174 1.00
n 173 1.00
n 175 1.00
n 176 1.00
n 166 1.00
n 177 1.00
n 179 1.00
n 178 1.00
n 180 1.00
n 170 1.00
n 182 1.00
n 185 1.00
n 184 1.00
n 186 1.00
n 188 1.00
n 189 1.00
n 191 1.00
n 192 1.00
n 194 1.00
n 193 1.00
n 183 1.00
n 187 1.00
n 190 1.00
e 0 1
e 0 2
e 0 14
e 0 13
e 1 2
e 1 14
e 1 15
e 2 7
e 2 8
e 2 4
e 2 3
e 2 15
e 3 4
e 3 15
e 3 17
e 3 16
e 4 7
e 4 5
e 4 18
e 4 17
e 5 7
e 5 6
e 5 18
e 6 7
e 6 18
e 6 19
e 6 20
e 7 8
e 7 20
e 8 10
e 8 9
e 8 22
e 8 21
e 8 20
e 9 10
e 9 23
e 9 22
e 10 12
e 10 11
e 10 23
e 11 12
e 11 23
e 11 24
e 12 24
e 12 25
e 12 38
e 13 14
e 13 27
e 13 26
e 14 15
e 14 27
e 15 16
e 15 27
e 15 28
e 16 17
e 16 28
e 16 29
e 17 18
e 17 31
e 17 30
e 17 29
e 18 19
e 18 31
e 19 20
e 19 31
e 19 33
e 20 21
e 20 33
e 21 22
e 21 33
e 21 35
e 21 34
e 22 23
e 22 24
e 22 35
e 23 24
e 24 25
e 24 37
e 24 35
e 25 37
e 25 38
e 26 27
e 26 40
e 26 39
e 26 52
e 26 78
e 26 104
e 27 28
e 27 40
e 28 29
e 28 41
e 28 40
e 29 30
e 29 43
e 29 41
e 29 42
e 30 31
e 30 32
e 30 43
e 31 33
e 31 32
e 32 33
e 32 46
e 32 45
e 32 43
e 32 44
e 33 34
e 33 46
e 33 47
e 34 35
e 34 47
e 35 37
e 35 36
e 35 47
e 36 37
e 36 50
e 36 49
e 36 47
e 37 38
e 37 50
e 38 50
e 38 51
e 38 77
e 38 103
e 39 40
e 39 52
e 40 41
e 40 52
e 40 54
e 40 53
e 41 42
e 41 55
e 41 54
e 42 43
e 42 55
e 42 56
e 43 44
e 43 56
e 44 45
e 44 58
e 44 56
e 45 46
e 45 58
e 46 47
e 46 60
e 46 58
e 47 49
e 47 48
e 47 60
e 48 49
e 48 60
e 48 62
e 48 61
e 49 50
e 49 62
e 50 51
e 50 64
e 50 62
e 50 63
e 51 64
e 51 77
e 52 53
e 52 65
e 52 78
e 53 54
e 53 66
e 53 65
e 54 55
e 54 68
e 54 66
e 54 67
e 55 56
e 55 68
e 56 58
e 56 57
e 56 68
e 57 58
e 57 70
e 57 68
e 57 69
e 58 60
e 58 59
e 58 70
e 59 60
e 59 73
e 59 70
e 59 71
e 59 72
e 60 61
e 60 73
e 61 62
e 61 73
e 61 74
e 62 63
e 62 74
e 63 64
e 63 77
e 63 74
e 63 75
e 63 76
e 64 77
e 65 66
e 65 79
e 65 78
e 66 67
e 66 79
e 67 68
e 67 79
e 67 81
e 68 69
e 68 81
e 69 70
e 69 81
e 69 71
e 69 84
e 69 82
e 69 83
e 70 71
e 71 72
e 71 84
e 72 73
e 72 84
e 72 85
e 73 74
e 73 85
e 73 87
e 74 75
e 74 87
e 75 76
e 75 87
e 75 88
e 76 77
e 76 88
e 76 89
e 76 90
e 77 90
e 77 103
e 78 79
e 78 92
e 78 91
e 78 104
e 79 81
e 79 80
e 79 92
e 80 81
e 80 82
e 80 92
e 80 94
e 80 93
e 81 82
e 82 83
e 82 96
e 82 94
e 82 95
e 83 84
e 83 96
e 83 85
e 84 85
e 85 87
e 85 86
e 85 98
e 85 96
e 86 87
e 86 98
e 86 99
e 87 88
e 87 101
e 87 99
e 88 89
e 88 101
e 89 90
e 89 101
e 89 102
e 90 102
e 90 103
e 91 92
e 91 93
e 91 106
e 91 105
e 91 104
e 92 93
e 93 94
e 93 106
e 94 95
e 94 106
e 94 108
e 95 96
e 95 97
e 95 108
e 96 98
e 96 97
e 97 98
e 97 110
e 97 108
e 97 109
e 98 99
e 98 110
e 98 111
e 99 101
e 99 100
e 99 111
e 99 112
e 100 101
e 100 114
e 100 112
e 100 113
e 101 102
e 101 114
e 102 103
e 102 114
e 102 116
e 102 115
e 103 116
e 103 142
e 104 105
e 104 117
e 105 106
e 105 107
e 105 117
e 105 118
e 106 108
e 106 107
e 107 108
e 107 121
e 107 120
e 107 118
e 108 109
e 108 121
e 109 110
e 109 121
e 109 123
e 109 122
e 110 111
e 110 123
e 111 112
e 111 125
e 111 124
e 111 123
e 112 113
e 112 126
e 112 125
e 113 114
e 113 126
e 113 127
e 114 115
e 114 127
e 115 116
e 115 127
e 115 128
e 116 128
e 116 129
e 116 142
e 117 118
e 117 130
e 117 143
e 117 169
e 118 120
e 118 119
e 118 130
e 119 120
e 119 134
e 119 130
e 119 131
e 119 132
e 120 121
e 120 134
e 121 122
e 121 134
e 122 123
e 122 134
e 122 135
e 122 136
e 123 124
e 123 137
e 123 136
e 124 125
e 124 139
e 124 138
e 124 137
e 125 126
e 125 139
e 126 127
e 126 139
e 127 128
e 127 139
e 127 141
e 128 129
e 128 141
e 129 141
e 129 142
e 130 131
e 130 143
e 131 132
e 131 143
e 131 144
e 131 133
e 131 146
e 132 134
e 132 133
e 133 134
e 133 147
e 133 146
e 134 135
e 134 147
e 135 136
e 135 148
e 135 147
e 136 137
e 136 148
e 136 149
e 137 138
e 137 149
e 137 151
e 137 150
e 138 139
e 138 151
e 139 141
e 139 140
e 139 151
e 140 141
e 140 154
e 140 153
e 140 151
e 141 142
e 141 154
e 142 154
e 142 155
e 143 144
e 143 157
e 143 156
e 143 169
e 144 146
e 144 145
e 144 157
e 145 146
e 145 147
e 145 157
e 145 159
e 146 147
e 147 148
e 147 159
e 147 160
e 148 149
e 148 160
e 148 162
e 149 150
e 149 162
e 150 151
e 150 162
e 150 163
e 150 164
e 151 153
e 151 152
e 151 165
e 151 164
e 152 153
e 152 165
e 152 167
e 153 154
e 153 167
e 154 155
e 154 167
e 155 167
e 155 168
e 155 181
e 156 157
e 156 169
e 157 159
e 157 158
e 157 169
e 158 159
e 158 172
e 158 171
e 158 169
e 159 160
e 159 172
e 160 162
e 160 161
e 160 172
e 160 174
e 160 173
e 161 162
e 161 174
e 161 175
e 162 163
e 162 176
e 162 175
e 163 164
e 163 176
e 164 165
e 164 166
e 164 176
e 164 177
e 165 167
e 165 166
e 166 167
e 166 177
e 166 168
e 166 179
e 166 178
e 167 168
e 168 179
e 168 180
e 168 181
e 169 171
e 169 170
e 169 182
e 170 171
e 170 182
e 170 185
e 170 184
e 171 172
e 171 185
e 172 173
e 172 185
e 173 174
e 173 185
e 173 186
e 174 175
e 174 188
e 174 186
e 175 176
e 175 189
e 175 188
e 176 177
e 176 189
e 177 178
e 177 189
e 177 191
e 178 179
e 178 180
e 178 191
e 178 192
e 179 180
e 180 181
e 180 192
e 180 194
e 180 193
e 181 194
e 182 184
e 182 183
e 183 184
e 183 186
e 183 187
e 184 185
e 184 186
e 185 186
e 186 188
e 186 187
e 187 188
e 187 190
e 187 193
e 188 189
e 188 190
e 189 191
e 189 190
e 190 191
e 190 192
e 190 193
e 191 192
e 192 193
e 193 194
